 &bands
    prefix  = 'Ru327'
    outdir='./out'
    filband = 'bands.dat'
 /

