 &control
    prefix='Ru327',
    pseudo_dir='.'
    outdir = './out',
 /
 &system    
    ibrav = 0, celldm(1) = 10.3946275, celldm(2) = 10.3946275, celldm(3) = 39.1645739, nat=  2, ntyp= 1,
    ecutwfc = 12.0, 
 /
 &electrons
 /
ATOMIC_SPECIES
Ru 101.07 Ru.pbe-spn-kjpaw_psl.1.0.0.UPF
Sr 87.62 Sr.pbesol-spn-kjpaw_psl.1.0.0.UPF
O 15.999 O.pz-n-kjpaw_psl.0.1.UPF
ATOMIC_POSITIONS crystal
 O 0.00 0.00 0.00
 O 1.00 0.00 0.00
 O 0.00 1.00 0.00
 O 1.00 1.00 0.00
CELL_PARAMETERS angstrom
10.3946275 0.0 0.0
0.0 10.3946275 0.0
0.0 0.0 39.1645739
/
K_POINTS
6 6 6 1 1 1