 &control
    prefix='Ru327',
    calculation='scf',
    restart_mode='from_scratch',
    pseudo_dir='.',
    outdir = './out',
 /
 &system    
    	    ibrav	=	1,
	    celldm(1)	=	10.4,
	    celldm(2)	=	10.4,
	    celldm(3)	=	39.2
	    nat		= 	5,
	    input_dft	=	'PBE',
	    ntyp	= 	3,
	    ecutwfc 	= 	20.0,
	    ecutrho	=	100,
 /
 &electrons
	conv_thr	=	1.D-5,
	mixing_mode	=	'local-TF',
	mixing_beta	=	0.5D0,
	diagonalization =	'cg',
 /
 &IONS
 /
 &CELL
 /
ATOMIC_SPECIES
Ru   102.00000   Ru.pbe-spn-rrkjus_psl.1.0.0.UPF
Sr    88.00000	 Sr.pbesol-spn-kjpaw_psl.1.0.0.UPF
O     16.00000   O.pbe-n-kjpaw_psl.1.0.0.UPF
ATOMIC_POSITIONS {crystal}
 Ru 0.00 0.00 0.00
 Sr 0.50 0.50 0.50
 O 0.00 0.50 0.00
 O 0.50 0.00 0.00
 O 0.00 0.00 0.50
K_POINTS automatic
4 4 4 0 0 0