 &control
    prefix='Ru327',
    calculation='scf',
    restart_mode='from_scratch',
    pseudo_dir='.',
    outdir = './out',
 /
 &system    
    	    ibrav	=	1,
	    celldm(1) 	= 	10.4,
	    celldm(3) 	= 	4,
	    nat		= 	2,
	    input_dft	=	'PBC',
	    ntyp	= 	3,
	    ecutwfc 	= 	20.0, 
 /
 &electrons
	conv_thr	=	1.D-8,
	mixing_beta	=	0.5D0,
 /
ATOMIC_SPECIES
Ru   102.00000   Ru.pbe-spn-kjpaw_psl.1.0.0.UPF
Sr    88.00000	 Sr.pbesol-spn-kjpaw_psl.1.0.0.UPF
O     16.00000   O.pz-n-kjpaw_psl.0.1.UPF
ATOMIC_POSITIONS bohr
 O 0.00 0.00 0.00
 O 10.3946275 0.00 0.00
K_POINTS (automatic)
8 8 8 0 0 0