 &control
    prefix='Ru327',
    calculation='scf',
    restart_mode='from_scratch',
    pseudo_dir='.',
    outdir = './out',
 /
 &system    
    	    ibrav	=	1,
	    celldm(1) 	= 	10.4,
	    celldm(3) 	= 	40,
	    nat		= 	8,
	    input_dft	=	'PBC',
	    ntyp	= 	3,
	    ecutwfc 	= 	40.0, 
 /
 &electrons
	conv_thr	=	1.D-5,
	mixing_beta	=	0.5D0,
 /
ATOMIC_SPECIES
Ru   102.00000   Ru.pbe-spn-kjpaw_psl.1.0.0.UPF
Sr    88.00000	 Sr.pbesol-spn-kjpaw_psl.1.0.0.UPF
O     16.00000   O.pz-n-kjpaw_psl.0.1.UPF
ATOMIC_POSITIONS {bohr}
 O 0.00 0.00 0.00
 O 10.3946275 0.00 0.00
 O 10.3946275 10.3946275 0.00
 O 0.00 10.3946275 0.00
 Ru 0.00 0.00 3.802129
 Ru 10.3946275 0.00 3.802129
 Ru 10.3946275 10.3946275 3.802129
 Ru 0.00 10.3946275 3.802129
K_POINTS {automatic}
4 4 4 0 0 0